Geographic Exponential Decay
20 297 246 153 268 213 122 58 27 12 182 277 249 145 295 92 172 82 179 40 261
p edge 320 319
e 0 15 4.0
e 1 22 2.0
e 1 0 1.0
e 2 14 24.0
e 2 240 22.0
e 2 1 3.0
e 3 312 2.0
e 3 2 13.0
e 4 5 1.0
e 4 3 3.0
e 6 112 1.0
e 6 4 1.0
e 7 248 1.0
e 7 6 3.0
e 8 108 5.0
e 8 7 2.0
e 9 125 4.0
e 9 8 3.0
e 10 106 5.0
e 10 9 1.0
e 11 287 6.0
e 11 10 8.0
e 12 51 26.0
e 12 19 59.0
e 12 264 1.0
e 12 247 59.0
e 12 109 55.0
e 12 11 8.0
e 13 121 10.0
e 13 12 46.0
e 16 225 1.0
e 16 13 11.0
e 17 151 3.0
e 17 16 2.0
e 18 216 1.0
e 18 17 1.0
e 20 155 6.0
e 20 18 1.0
e 21 280 1.0
e 21 20 6.0
e 23 160 16.0
e 23 43 22.0
e 23 21 17.0
e 24 297 2.0
e 24 23 5.0
e 25 219 4.0
e 25 24 2.0
e 26 313 1.0
e 26 25 3.0
e 27 164 73.0
e 27 85 91.0
e 27 92 63.0
e 27 55 17.0
e 27 28 62.0
e 29 318 1.0
e 29 26 2.0
e 30 62 5.0
e 30 29 1.0
e 31 267 2.0
e 31 30 4.0
e 32 113 6.0
e 32 31 2.0
e 33 294 6.0
e 33 32 11.0
e 34 246 90.0
e 34 33 1.0
e 35 44 19.0
e 35 110 1.0
e 35 34 20.0
e 36 49 2.0
e 36 35 5.0
e 37 42 1.0
e 37 36 1.0
e 38 135 3.0
e 38 37 5.0
e 39 94 8.0
e 39 38 1.0
e 40 132 82.0
e 40 165 28.0
e 40 221 92.0
e 40 41 58.0
e 40 288 48.0
e 40 39 83.0
e 45 46 1.0
e 45 40 27.0
e 47 127 4.0
e 47 45 1.0
e 48 300 2.0
e 48 47 3.0
e 50 224 1.0
e 50 48 2.0
e 52 187 8.0
e 52 50 1.0
e 53 107 1.0
e 53 52 2.0
e 54 131 1.0
e 54 53 5.0
e 56 316 3.0
e 56 54 5.0
e 57 270 2.0
e 57 56 1.0
e 58 309 41.0
e 58 290 45.0
e 58 133 66.0
e 58 128 41.0
e 58 303 10.0
e 58 57 2.0
e 59 60 5.0
e 59 58 16.0
e 61 63 2.0
e 61 59 4.0
e 64 198 2.0
e 64 61 2.0
e 65 116 7.0
e 65 64 11.0
e 66 67 2.0
e 66 65 5.0
e 68 195 1.0
e 68 66 2.0
e 69 70 5.0
e 69 68 6.0
e 71 89 1.0
e 71 69 1.0
e 72 315 1.0
e 72 71 1.0
e 73 147 2.0
e 73 72 2.0
e 74 75 2.0
e 74 73 1.0
e 76 253 7.0
e 76 74 1.0
e 77 301 9.0
e 77 76 1.0
e 78 222 4.0
e 78 77 1.0
e 79 148 2.0
e 79 78 5.0
e 80 81 4.0
e 80 79 1.0
e 82 161 61.0
e 82 304 63.0
e 82 178 14.0
e 82 285 54.0
e 82 205 32.0
e 82 80 84.0
e 83 281 1.0
e 83 82 21.0
e 84 101 4.0
e 84 83 4.0
e 86 87 1.0
e 86 84 10.0
e 88 277 12.0
e 88 86 1.0
e 90 176 3.0
e 90 88 1.0
e 91 246 67.0
e 92 201 21.0
e 92 202 66.0
e 92 297 31.0
e 92 261 81.0
e 93 277 43.0
e 93 218 17.0
e 94 152 2.0
e 95 157 1.0
e 95 90 1.0
e 96 134 2.0
e 96 95 5.0
e 97 98 3.0
e 97 96 2.0
e 99 308 2.0
e 99 97 1.0
e 100 104 5.0
e 100 99 1.0
e 102 138 1.0
e 102 100 1.0
e 103 105 9.0
e 103 146 2.0
e 103 102 10.0
e 111 249 66.0
e 114 149 2.0
e 114 103 22.0
e 115 117 5.0
e 115 114 1.0
e 118 119 1.0
e 118 115 3.0
e 120 122 10.0
e 120 118 10.0
e 122 123 95.0
e 122 235 94.0
e 122 124 14.0
e 122 296 2.0
e 126 129 2.0
e 126 120 6.0
e 130 136 2.0
e 130 126 1.0
e 137 139 2.0
e 137 130 1.0
e 140 141 6.0
e 140 137 1.0
e 142 143 10.0
e 142 140 6.0
e 144 293 19.0
e 144 212 5.0
e 144 142 4.0
e 145 314 45.0
e 145 150 100.0
e 145 242 91.0
e 145 179 24.0
e 145 194 99.0
e 145 144 38.0
e 153 196 91.0
e 153 154 12.0
e 153 156 2.0
e 153 282 94.0
e 153 158 34.0
e 159 279 12.0
e 159 145 31.0
e 162 163 1.0
e 162 159 6.0
e 166 299 2.0
e 166 162 9.0
e 167 234 2.0
e 167 166 2.0
e 168 169 2.0
e 168 167 2.0
e 170 171 2.0
e 170 168 1.0
e 172 302 36.0
e 172 173 66.0
e 172 174 64.0
e 172 289 96.0
e 172 286 40.0
e 172 170 68.0
e 175 177 1.0
e 175 172 50.0
e 178 227 13.0
e 179 180 31.0
e 179 245 25.0
e 179 266 19.0
e 179 181 35.0
e 181 182 70.0
e 182 252 67.0
e 182 183 58.0
e 182 184 86.0
e 182 185 10.0
e 186 188 1.0
e 186 175 2.0
e 189 190 2.0
e 189 186 1.0
e 191 197 1.0
e 191 189 1.0
e 192 193 6.0
e 192 191 5.0
e 199 200 3.0
e 199 192 7.0
e 203 263 1.0
e 203 199 1.0
e 204 206 2.0
e 204 203 6.0
e 207 208 4.0
e 207 204 9.0
e 209 210 11.0
e 209 207 1.0
e 211 213 31.0
e 213 214 24.0
e 213 215 59.0
e 213 217 49.0
e 213 218 85.0
e 220 223 2.0
e 220 209 4.0
e 226 228 4.0
e 226 220 1.0
e 229 230 6.0
e 229 262 24.0
e 229 226 3.0
e 231 232 2.0
e 231 229 1.0
e 233 306 1.0
e 233 231 5.0
e 236 297 26.0
e 237 238 8.0
e 237 233 1.0
e 239 241 4.0
e 239 237 10.0
e 243 244 3.0
e 243 239 5.0
e 246 305 17.0
e 246 249 40.0
e 246 319 4.0
e 249 250 40.0
e 249 251 62.0
e 249 254 28.0
e 255 256 5.0
e 255 243 1.0
e 257 258 5.0
e 257 255 5.0
e 259 260 5.0
e 259 257 3.0
e 261 265 79.0
e 261 268 56.0
e 261 269 96.0
e 261 271 77.0
e 268 272 79.0
e 268 273 33.0
e 268 274 64.0
e 268 275 92.0
e 276 277 79.0
e 277 278 41.0
e 277 282 76.0
e 283 284 7.0
e 283 259 4.0
e 284 291 18.0
e 292 295 55.0
e 295 297 20.0
e 295 298 61.0
e 295 307 78.0
e 295 310 99.0
e 297 311 8.0
e 317 283 4.0
